NAME : tsp45_22.208.tour
COMMENT : Length = 208
COMMENT : Found by LKH [Keld Helsgaun]
TYPE : TOUR
DIMENSION : 45
TOUR_SECTION
1
23
31
36
10
20
8
14
42
12
30
34
21
11
3
26
44
18
17
22
15
28
38
5
7
45
39
2
41
13
40
6
29
43
35
19
37
32
4
33
25
27
9
16
24
-1
EOF
